(declare-const %94 (_ BitVec 64))
(declare-const %95 (_ BitVec 64))
(declare-const %96 (_ BitVec 64))
(declare-const %97 (_ BitVec 64))
(declare-const %98 (_ BitVec 53))
(declare-const %99 (_ BitVec 1))
(declare-const tmp_dword1!7 (_ BitVec 64))
(declare-const tmp_dword1!6 (_ BitVec 64))
(declare-const tmp_dword1!5 (_ BitVec 64))
(declare-const tmp_dword1!4 (_ BitVec 64))
(declare-const tmp_dword1!3 (_ BitVec 64))
(declare-const tmp_dword1!2 (_ BitVec 64))
(declare-const prev_pc!10 (_ BitVec 64))
(declare-const tmp_dword1!1 (_ BitVec 64))
(declare-const prev_pc!11 (_ BitVec 64))
(declare-const tmp_dword!2 (_ BitVec 64))
(declare-const tmp_dword!1 (_ BitVec 64))
(declare-const %31 (_ BitVec 64))
(declare-const %32 (_ BitVec 64))
(declare-const %33 (_ BitVec 64))
(declare-const %34 (_ BitVec 64))
(declare-const %35 (_ BitVec 64))
(declare-const %36 (_ BitVec 53))
(declare-const %37 (_ BitVec 3))
(declare-const %38 (_ BitVec 6))
(declare-const %39 (_ BitVec 6))
(declare-const tmp_dword!4 (_ BitVec 64))
(declare-const tmp_dword!3 (_ BitVec 64))
(declare-const %40 (_ BitVec 3))
(declare-const %41 (_ BitVec 1))
(declare-const %42 (_ BitVec 64))
(declare-const %43 (_ BitVec 32))
(declare-const %44 (_ BitVec 64))
(declare-const %45 (_ BitVec 64))
(declare-const %46 (_ BitVec 64))
(declare-const %47 (_ BitVec 64))
(declare-const %48 (_ BitVec 64))
(declare-const %49 (_ BitVec 64))
(declare-const %50 (_ BitVec 64))
(declare-const %51 (_ BitVec 64))
(declare-const %52 (_ BitVec 53))
(declare-const %53 (_ BitVec 64))
(declare-const %54 (_ BitVec 64))
(declare-const %55 (_ BitVec 2))
(declare-const tmp_bit_offset!2 (_ BitVec 6))
(declare-const %56 (_ BitVec 1))
(declare-const %57 (_ BitVec 32))
(declare-const %58 (_ BitVec 32))
(declare-const %59 (_ BitVec 8))
(declare-const rs2_var!2 (_ BitVec 64))
(declare-const tmp_address!2 (_ BitVec 64))
(declare-const XREG!16 (Array (_ BitVec 5) (_ BitVec 64)))
(declare-const XREG!14 (Array (_ BitVec 5) (_ BitVec 64)))
(declare-const XREG!15 (Array (_ BitVec 5) (_ BitVec 64)))
(declare-const XREG!13 (Array (_ BitVec 5) (_ BitVec 64)))
(declare-const %60 (_ BitVec 64))
(declare-const %61 (_ BitVec 64))
(declare-const %62 (_ BitVec 64))
(declare-const %63 (_ BitVec 64))
(declare-const %64 (_ BitVec 32))
(declare-const %65 (_ BitVec 24))
(declare-const %66 (_ BitVec 64))
(declare-const %67 (_ BitVec 64))
(declare-const %68 (_ BitVec 64))
(declare-const %69 (_ BitVec 64))
(declare-const %101 (_ BitVec 64))
(declare-const %100 (_ BitVec 64))
(declare-const %103 (_ BitVec 64))
(declare-const %70 (_ BitVec 2))
(declare-const %102 (_ BitVec 64))
(declare-const %71 (_ BitVec 1))
(declare-const %72 (_ BitVec 32))
(declare-const %73 (_ BitVec 32))
(declare-const %74 (_ BitVec 16))
(declare-const %75 (_ BitVec 64))
(declare-const %76 (_ BitVec 64))
(declare-const %77 (_ BitVec 64))
(declare-const %78 (_ BitVec 64))
(declare-const %79 (_ BitVec 32))
(declare-const PC!28 (_ BitVec 64))
(declare-const PC!29 (_ BitVec 64))
(declare-const PC!27 (_ BitVec 64))
(declare-const tmp_dword2!7 (_ BitVec 64))
(declare-const %80 (_ BitVec 16))
(declare-const %81 (_ BitVec 64))
(declare-const tmp_dword2!6 (_ BitVec 64))
(declare-const %82 (_ BitVec 64))
(declare-const tmp_dword2!5 (_ BitVec 64))
(declare-const tmp_dword2!4 (_ BitVec 64))
(declare-const %83 (_ BitVec 64))
(declare-const tmp_dword2!3 (_ BitVec 64))
(declare-const %84 (_ BitVec 64))
(declare-const tmp_dword2!2 (_ BitVec 64))
(declare-const %85 (_ BitVec 32))
(declare-const tmp_dword2!1 (_ BitVec 64))
(declare-const %86 (_ BitVec 32))
(declare-const %87 (_ BitVec 24))
(declare-const %88 (_ BitVec 64))
(declare-const %89 (_ BitVec 64))
(declare-const PC!33 (_ BitVec 64))
(declare-const PC!34 (_ BitVec 64))
(declare-const PC!31 (_ BitVec 64))
(declare-const PC!32 (_ BitVec 64))
(declare-const PC!30 (_ BitVec 64))
(declare-const MEM!5 (Array (_ BitVec 53) (_ BitVec 64)))
(declare-const MEM!4 (Array (_ BitVec 53) (_ BitVec 64)))
(declare-const PC!35 (_ BitVec 64))
(declare-const MEM!1 (Array (_ BitVec 53) (_ BitVec 64)))
(declare-const mem_index!2 (_ BitVec 53))
(declare-const MEM!3 (Array (_ BitVec 53) (_ BitVec 64)))
(declare-const MEM!2 (Array (_ BitVec 53) (_ BitVec 64)))
(declare-const %90 (_ BitVec 64))
(declare-const %91 (_ BitVec 64))
(declare-const %92 (_ BitVec 32))
(declare-const %93 (_ BitVec 8))
(assert 
   (=
     XREG!14
     (store XREG!13 #b00000 #b0000000000000000000000000000000000000000000000000000000000000000)))
(assert 
   (= prev_pc!10 PC!27))
(assert 
   (=
     %33
     (select XREG!14 #b01100)))
(assert 
   (=
     %32
     (bvadd %33 #b0000000000000000000000000000000000000000000000000000000000000000)))
(assert 
   (= tmp_address!2 %32))
(assert 
   (=
     %34
     (select XREG!14 #b01111)))
(assert 
   (= rs2_var!2 %34))
(assert 
   (=
     %35
     (bvlshr %32 #b0000000000000000000000000000000000000000000000000000000000000011)))
(assert 
   (=
     %36
     ((_ extract 52 0) %35)))
(assert 
   (= mem_index!2 %36))
(assert 
   (=
     %37
     ((_ extract 2 0) %32)))
(assert 
   (=
     %38
     ((_ zero_extend 3) %37)))
(assert 
   (=
     %39
     (bvmul %38 #b001000)))
(assert 
   (= tmp_bit_offset!2 %39))
(assert 
   (=
     %40
     ((_ extract 2 0) %32)))
(assert 
   (=
     %41
     (ite
       (bvult %40 #b101)
       #b1
       #b0)))
(assert 
   (=
     %42
     (select MEM!1 %36)))
(assert 
   (= tmp_dword!3 %42))
(assert 
   (=
     %43
     ((_ extract 31 0) %34)))
(assert 
   (=
     %45
     ((_ zero_extend 32) %43)))
(assert 
   (=
     %46
     ((_ zero_extend 58) %39)))
(assert 
   (=
     %47
     ((_ zero_extend 58) %39)))
(assert 
   (=
     %48
     (bvshl #b0000000000000000000000000000000011111111111111111111111111111111 %47)))
(assert 
   (=
     %49
     (bvxor %48 #b1111111111111111111111111111111111111111111111111111111111111111)))
(assert 
   (=
     %50
     (bvand %42 %49)))
(assert 
   (=
     %51
     (bvshl %45 %46)))
(assert 
   (=
     %44
     (bvor %50 %51)))
(assert 
   (= tmp_dword!4 %44))
(assert 
   (=
     MEM!5
     (store MEM!1 %36 %44)))
(assert 
   (=
     %52
     (bvadd %36 #b00000000000000000000000000000000000000000000000000001)))
(assert 
   (=
     %53
     (select MEM!1 %52)))
(assert 
   (= tmp_dword1!3 %53))
(assert 
   (=
     %54
     (select MEM!1 %36)))
(assert 
   (= tmp_dword2!3 %54))
(assert 
   (=
     %55
     ((_ extract 1 0) %32)))
(assert 
   (=
     %56
     (ite
       (= %55 #b01)
       #b1
       #b0)))
(assert 
   (=
     MEM!2
     (ite
       (= %41 #b1)
       MEM!5
       MEM!4)))
(assert 
   (=
     tmp_dword!2
     (ite
       (= %41 #b1)
       %44
       tmp_dword!1)))
(assert 
   (=
     tmp_dword2!2
     (ite
       (= %41 #b1)
       tmp_dword2!1
       tmp_dword2!7)))
(assert 
   (=
     tmp_dword1!2
     (ite
       (= %41 #b1)
       tmp_dword1!1
       tmp_dword1!7)))
(assert 
   (=
     %31
     (bvadd PC!27 #b0000000000000000000000000000000000000000000000000000000000000100)))
(assert 
   (= PC!28 %31))
(assert 
   (= PC!29 %31))
(assert 
   (= PC!30 PC!29))
(assert 
   (=
     XREG!15
     (store XREG!14 #b00000 #b0000000000000000000000000000000000000000000000000000000000000000)))
(assert 
   (= prev_pc!11 PC!29))
(assert 
   (=
     %101
     (bvadd PC!29 #b0000000000000000000000000000000000000000000000000000000000000100)))
(assert 
   (=
     XREG!16
     (store XREG!15 #b00000 %101)))
(assert 
   (=
     %103
     (select XREG!16 #b00001)))
(assert 
   (=
     %102
     (bvadd %103 #b0000000000000000000000000000000000000000000000000000000000000000)))
(assert 
   (= PC!31 %102))
(assert 
   (=
     %99
     (ite
       (= %102 PC!29)
       #b1
       #b0)))
(assert 
   (=
     %57
     ((_ extract 31 0) %34)))
(assert 
   (=
     %58
     (bvlshr %57 #b00000000000000000000000000011000)))
(assert 
   (=
     %59
     ((_ extract 7 0) %58)))
(assert 
   (=
     %61
     ((_ zero_extend 56) %59)))
(assert 
   (=
     %62
     (bvand %53 #b1111111111111111111111111111111111111111111111111111111100000000)))
(assert 
   (=
     %63
     (bvshl %61 #b0000000000000000000000000000000000000000000000000000000000000000)))
(assert 
   (=
     %60
     (bvor %62 %63)))
(assert 
   (= tmp_dword1!4 %60))
(assert 
   (=
     %64
     (bvlshr %57 #b00000000000000000000000000000000)))
(assert 
   (=
     %65
     ((_ extract 23 0) %64)))
(assert 
   (=
     %67
     ((_ zero_extend 40) %65)))
(assert 
   (=
     %68
     (bvand %54 #b0000000000000000000000001111111111111111111111111111111111111111)))
(assert 
   (=
     %69
     (bvshl %67 #b0000000000000000000000000000000000000000000000000000000000101000)))
(assert 
   (=
     %66
     (bvor %68 %69)))
(assert 
   (= tmp_dword2!4 %66))
(assert 
   (=
     %70
     ((_ extract 1 0) %32)))
(assert 
   (=
     %71
     (ite
       (= %70 #b10)
       #b1
       #b0)))
(assert 
   (=
     tmp_dword2!7
     (ite
       (= %56 #b1)
       %66
       (ite
         (= %71 #b1)
         %81
         %94))))
(assert 
   (=
     tmp_dword1!7
     (ite
       (= %56 #b1)
       %60
       (ite
         (= %71 #b1)
         %75
         %88))))
(assert 
   (=
     %98
     (bvadd %36 #b00000000000000000000000000000000000000000000000000001)))
(assert 
   (=
     MEM!3
     (store MEM!1 %98 tmp_dword1!7)))
(assert 
   (=
     MEM!4
     (store MEM!3 %36 tmp_dword2!7)))
(assert 
   (=
     %72
     ((_ extract 31 0) %34)))
(assert 
   (=
     %73
     (bvlshr %72 #b00000000000000000000000000010000)))
(assert 
   (=
     %74
     ((_ extract 15 0) %73)))
(assert 
   (=
     %76
     ((_ zero_extend 48) %74)))
(assert 
   (=
     %77
     (bvand %53 #b1111111111111111111111111111111111111111111111110000000000000000)))
(assert 
   (=
     %78
     (bvshl %76 #b0000000000000000000000000000000000000000000000000000000000000000)))
(assert 
   (=
     %75
     (bvor %77 %78)))
(assert 
   (= tmp_dword1!5 %75))
(assert 
   (=
     %79
     (bvlshr %72 #b00000000000000000000000000000000)))
(assert 
   (=
     %80
     ((_ extract 15 0) %79)))
(assert 
   (=
     %82
     ((_ zero_extend 48) %80)))
(assert 
   (=
     %83
     (bvand %54 #b0000000000000000111111111111111111111111111111111111111111111111)))
(assert 
   (=
     %84
     (bvshl %82 #b0000000000000000000000000000000000000000000000000000000000110000)))
(assert 
   (=
     %81
     (bvor %83 %84)))
(assert 
   (= tmp_dword2!5 %81))
(assert 
   (=
     %85
     ((_ extract 31 0) %34)))
(assert 
   (=
     %86
     (bvlshr %85 #b00000000000000000000000000001000)))
(assert 
   (=
     %87
     ((_ extract 23 0) %86)))
(assert 
   (=
     %89
     ((_ zero_extend 40) %87)))
(assert 
   (=
     %90
     (bvand %53 #b1111111111111111111111111111111111111111000000000000000000000000)))
(assert 
   (=
     %91
     (bvshl %89 #b0000000000000000000000000000000000000000000000000000000000000000)))
(assert 
   (=
     %88
     (bvor %90 %91)))
(assert 
   (= tmp_dword1!6 %88))
(assert 
   (=
     %92
     (bvlshr %85 #b00000000000000000000000000000000)))
(assert 
   (=
     %93
     ((_ extract 7 0) %92)))
(assert 
   (=
     %95
     ((_ zero_extend 56) %93)))
(assert 
   (=
     %96
     (bvand %54 #b0000000011111111111111111111111111111111111111111111111111111111)))
(assert 
   (=
     %97
     (bvshl %95 #b0000000000000000000000000000000000000000000000000000000000111000)))
(assert 
   (=
     %94
     (bvor %96 %97)))
(assert 
   (= tmp_dword2!6 %94))
(assert 
   (=
     %100
     (bvadd %102 #b0000000000000000000000000000000000000000000000000000000000000100)))
(assert 
   (= PC!35 %100))
(assert 
   (=
     PC!32
     (ite
       (= %99 #b1)
       %100
       %102)))
(assert 
   (= PC!33 PC!32))
(assert 
   (= PC!34 PC!32))
(check-sat)
(get-value (
  %94
  %95
  %96
  %97
  %98
  %99
  tmp_dword1!7
  tmp_dword1!6
  tmp_dword1!5
  tmp_dword1!4
  tmp_dword1!3
  tmp_dword1!2
  prev_pc!10
  tmp_dword1!1
  prev_pc!11
  tmp_dword!2
  tmp_dword!1
  %31
  %32
  %33
  %34
  %35
  %36
  %37
  %38
  %39
  tmp_dword!4
  tmp_dword!3
  %40
  %41
  %42
  %43
  %44
  %45
  %46
  %47
  %48
  %49
  %50
  %51
  %52
  %53
  %54
  %55
  tmp_bit_offset!2
  %56
  %57
  %58
  %59
  rs2_var!2
  tmp_address!2
  XREG!16
  XREG!14
  XREG!15
  XREG!13
  %60
  %61
  %62
  %63
  %64
  %65
  %66
  %67
  %68
  %69
  %101
  %100
  %103
  %70
  %102
  %71
  %72
  %73
  %74
  %75
  %76
  %77
  %78
  %79
  PC!28
  PC!29
  PC!27
  tmp_dword2!7
  %80
  %81
  tmp_dword2!6
  %82
  tmp_dword2!5
  tmp_dword2!4
  %83
  tmp_dword2!3
  %84
  tmp_dword2!2
  %85
  tmp_dword2!1
  %86
  %87
  %88
  %89
  PC!33
  PC!34
  PC!31
  PC!32
  PC!30
  MEM!5
  MEM!4
  PC!35
  MEM!1
  mem_index!2
  MEM!3
  MEM!2
  %90
  %91
  %92
  %93
  ))
(get-model)
(exit)
